2
4
20
1 1.3 1.55 1.75 2.1
43 23 23 32 11 19 16 41 48 39 49 7 40 25 43 45 48 12 7 39 16 13 13 13 18 44 16 45 49 10 41 6 49 36 41 27 31 21 37 41 35 17 25 18 12 44 35 43 37 29 42 17 26 25 39 5 6 8 10 12 6 22 44 24 25 31 17 18 7 37 43 31 42 40 33 17 19 34 26 14 